Route #1: 7 13 8 27 17
Route #2: 18 1 48 5 22 58
Route #3: 47 39 15 26 35 55 38
Route #4: 6 2 42 45 54
Route #5: 50 43 56 51 9 23
Route #6: 16 20 3 11 4 21 40 25
Route #7: 14 19 52 59 33 41
Route #8: 29 57 37 12 32 10 24
Route #9: 46 31 53 30 49 44 36 28 34
cost 1595.7071533203125